30505
5,28,122,264,300,430,607,811,834,1018,1082,1267,1486,1528,1535,1541,1606,1841,1885,1951,1954,1969,1978,2003,2026,2064,2259,2274,2285,2303,2326,2453,2544,2561,2590,2683,2705,2709,2722,2726,3240,3699,3731,3759,3835,3837,4160,4205,4361,4413,4537,4543,4635,4684,4689,4775,4784
